NAME: ALEX33
TYPE: TSP
COMMENT: 32-city problem ALEXANDRE 
DIMENSION:  32
EDGE_WEIGHT_TYPE : EUC_2D
NODE_COORD_SECTION
1 1000 1000
2 1000 2000
3 1000 3000
4 1000 4000
5 1000 5000
6 1000 6000
7 1000 7000
8 1000 8000
9 1000 9000
10 2000 9000
11 3000 9000
12 4000 9000
13 5000 9000
14 6000 9000
15 7000 9000
16 8000 9000
17 9000 9000
18 9000 8000
19 9000 7000
20 9000 6000
21 9000 5000
22 9000 4000
23 9000 3000
24 9000 2000
25 9000 1000
26 8000 1000
27 7000 1000
28 6000 1000
29 5000 1000
30 4000 1000
31 3000 1000
32 2000 1000
EOF
